
Gurobi 11.0.3 (linux64) logging started Thu Nov 21 14:11:25 2024

Set parameter LogFile to value "/home/yihong/Coding/OR_SUC/SUC_results_bigM100000_thread4/case24_ieee_rts_theta0.1_epsilon0.05_gurobi_seed170000_num_gen100_N_WDR100_load_scaling_factor1_proposed_T20quadra_cost.txt"
Set parameter TimeLimit to value 3600
Gurobi Optimizer version 11.0.3 build v11.0.3rc0 (linux64 - "Ubuntu 20.04.6 LTS")

CPU model: AMD EPYC 7532 32-Core Processor, instruction set [SSE2|AVX|AVX2]
Thread count: 64 physical cores, 128 logical processors, using up to 4 threads

Optimize a model with 47882 rows, 24901 columns and 1096282 nonzeros
Model fingerprint: 0xb7462c68
Model has 2000 quadratic constraints
Variable types: 22901 continuous, 2000 integer (2000 binary)
Coefficient statistics:
  Matrix range     [3e-04, 2e+03]
  QMatrix range    [2e-03, 8e-03]
  QLMatrix range   [7e-01, 6e+01]
  Objective range  [1e+00, 1e+00]
  Bounds range     [1e+00, 1e+00]
  RHS range        [1e+00, 9e+03]
Presolve removed 39096 rows and 10560 columns
Presolve time: 0.36s
Presolved: 8786 rows, 14341 columns, 49948 nonzeros
Presolved model has 2000 quadratic constraint(s)
Variable types: 12341 continuous, 2000 integer (2000 binary)

Root relaxation: objective 2.810511e+04, 6762 iterations, 0.13 seconds (0.16 work units)

    Nodes    |    Current Node    |     Objective Bounds      |     Work
 Expl Unexpl |  Obj  Depth IntInf | Incumbent    BestBd   Gap | It/Node Time

     0     0 28105.1081    0    -          - 28105.1081      -     -    0s
     0     0 285526.038    0  584          - 285526.038      -     -    1s
     0     0 538045.825    0  500          - 538045.825      -     -    1s
     0     0 538068.223    0  247          - 538068.223      -     -    1s
     0     0 538244.145    0  120          - 538244.145      -     -    1s
     0     0 538252.155    0  120          - 538252.155      -     -    1s
     0     0 538252.155    0  120          - 538252.155      -     -    1s
     0     0 538252.155    0  120          - 538252.155      -     -    1s
     0     2 538252.155    0  120          - 538252.155      -     -    2s
   146   158 538688.987   44   57          - 538274.898      -  68.2    5s
H  206   217                    538893.02220 538274.898  0.11%  63.5    5s
*  206   217              76    538893.02220 538280.075  0.11%  63.7    5s
   419   290 538680.486   19  120 538893.022 538280.075  0.11%  54.3   10s
   445   312 538280.075   17   66 538893.022 538280.075  0.11%  82.9   15s
   775   400     cutoff   29      538893.022 538300.833  0.11%  97.9   20s
  1239   608 538430.746   37    - 538893.022 538334.400  0.10%  96.7   25s

Cutting planes:
  Gomory: 6
  Implied bound: 26
  MIR: 33
  Flow cover: 19
  RLT: 52
  Relax-and-lift: 1

Explored 1555 nodes (163133 simplex iterations) in 27.27 seconds (31.14 work units)
Thread count was 4 (of 128 available processors)

Solution count 2: 538893 538893 

Optimal solution found (tolerance 1.00e-03)
Warning: max constraint violation (2.3280e-07) exceeds tolerance
Best objective 5.388930222026e+05, best bound 5.383560585843e+05, gap 0.0996%
